24° run output:
{
    "Function": "kroB300.tsp",
    "Problem dimension": [
        175,
        177,
        42,
        54,
        149,
        187,
        38,
        131,
        123,
        46,
        162,
        240,
        246,
        297,
        124,
        262,
        241,
        250,
        142,
        190,
        96,
        92,
        200,
        67,
        17,
        219,
        274,
        50,
        197,
        52,
        188,
        293,
        78,
        196,
        251,
        20,
        166,
        70,
        156,
        6,
        186,
        237,
        147,
        88,
        291,
        191,
        143,
        129,
        216,
        280,
        296,
        118,
        87,
        233,
        207,
        33,
        45,
        85,
        229,
        24,
        73,
        164,
        282,
        28,
        276,
        205,
        225,
        119,
        158,
        12,
        117,
        86,
        288,
        252,
        178,
        113,
        34,
        71,
        36,
        183,
        55,
        271,
        7,
        249,
        59,
        103,
        83,
        204,
        193,
        234,
        81,
        265,
        289,
        4,
        61,
        133,
        263,
        26,
        94,
        11,
        100,
        223,
        287,
        57,
        1,
        77,
        228,
        43,
        152,
        176,
        173,
        98,
        25,
        90,
        8,
        60,
        76,
        93,
        213,
        65,
        160,
        299,
        259,
        254,
        112,
        165,
        212,
        202,
        257,
        270,
        140,
        192,
        222,
        35,
        136,
        106,
        84,
        244,
        72,
        211,
        110,
        256,
        69,
        2,
        245,
        279,
        258,
        260,
        209,
        107,
        231,
        217,
        74,
        79,
        255,
        126,
        290,
        157,
        283,
        218,
        64,
        116,
        121,
        210,
        184,
        224,
        10,
        27,
        268,
        242,
        172,
        53,
        161,
        21,
        203,
        109,
        238,
        102,
        150,
        138,
        49,
        58,
        9,
        281,
        48,
        171,
        163,
        145,
        134,
        82,
        236,
        62,
        144,
        56,
        114,
        248,
        40,
        108,
        226,
        14,
        91,
        199,
        80,
        227,
        278,
        277,
        232,
        63,
        125,
        30,
        214,
        284,
        267,
        95,
        101,
        111,
        206,
        235,
        208,
        179,
        39,
        189,
        169,
        269,
        122,
        0,
        198,
        3,
        130,
        37,
        221,
        41,
        275,
        31,
        141,
        128,
        75,
        253,
        174,
        104,
        22,
        273,
        261,
        139,
        23,
        32,
        201,
        13,
        286,
        243,
        18,
        182,
        16,
        285,
        264,
        159,
        194,
        154,
        47,
        120,
        127,
        220,
        168,
        137,
        68,
        239,
        66,
        99,
        180,
        15,
        5,
        135,
        153,
        295,
        247,
        51,
        195,
        97,
        294,
        185,
        89,
        170,
        44,
        266,
        230,
        115,
        181,
        272,
        215,
        29,
        151,
        105,
        155,
        146,
        167,
        292,
        132,
        19,
        148,
        298
    ],
    "Global Optimum": 0,
    "Algorithm": "Genetic algorithm",
    "Parameters": {
        "population": 30,
        "offspring": 30,
        "mutation probability": 0.0033333333333333335,
        "crossover probability": 0.9
    },
    "Fitness": 296920,
    "Solution": [
        175,
        177,
        42,
        54,
        149,
        187,
        38,
        131,
        123,
        46,
        162,
        240,
        246,
        297,
        124,
        262,
        241,
        250,
        142,
        190,
        96,
        92,
        200,
        67,
        17,
        219,
        274,
        50,
        197,
        52,
        188,
        293,
        78,
        196,
        251,
        20,
        166,
        70,
        156,
        6,
        186,
        237,
        147,
        88,
        291,
        191,
        143,
        129,
        216,
        280,
        296,
        118,
        87,
        233,
        207,
        33,
        45,
        85,
        229,
        24,
        73,
        164,
        282,
        28,
        276,
        205,
        225,
        119,
        158,
        12,
        117,
        86,
        288,
        252,
        178,
        113,
        34,
        71,
        36,
        183,
        55,
        271,
        7,
        249,
        59,
        103,
        83,
        204,
        193,
        234,
        81,
        265,
        289,
        4,
        61,
        133,
        263,
        26,
        94,
        11,
        100,
        223,
        287,
        57,
        1,
        77,
        228,
        43,
        152,
        176,
        173,
        98,
        25,
        90,
        8,
        60,
        76,
        93,
        213,
        65,
        160,
        299,
        259,
        254,
        112,
        165,
        212,
        202,
        257,
        270,
        140,
        192,
        222,
        35,
        136,
        106,
        84,
        244,
        72,
        211,
        110,
        256,
        69,
        2,
        245,
        279,
        258,
        260,
        209,
        107,
        231,
        217,
        74,
        79,
        255,
        126,
        290,
        157,
        283,
        218,
        64,
        116,
        121,
        210,
        184,
        224,
        10,
        27,
        268,
        242,
        172,
        53,
        161,
        21,
        203,
        109,
        238,
        102,
        150,
        138,
        49,
        58,
        9,
        281,
        48,
        171,
        163,
        145,
        134,
        82,
        236,
        62,
        144,
        56,
        114,
        248,
        40,
        108,
        226,
        14,
        91,
        199,
        80,
        227,
        278,
        277,
        232,
        63,
        125,
        30,
        214,
        284,
        267,
        95,
        101,
        111,
        206,
        235,
        208,
        179,
        39,
        189,
        169,
        269,
        122,
        0,
        198,
        3,
        130,
        37,
        221,
        41,
        275,
        31,
        141,
        128,
        75,
        253,
        174,
        104,
        22,
        273,
        261,
        139,
        23,
        32,
        201,
        13,
        286,
        243,
        18,
        182,
        16,
        285,
        264,
        159,
        194,
        154,
        47,
        120,
        127,
        220,
        168,
        137,
        68,
        239,
        66,
        99,
        180,
        15,
        5,
        135,
        153,
        295,
        247,
        51,
        195,
        97,
        294,
        185,
        89,
        170,
        44,
        266,
        230,
        115,
        181,
        272,
        215,
        29,
        151,
        105,
        155,
        146,
        167,
        292,
        132,
        19,
        148,
        298
    ],
    "Nb of functions evaluations": 200010,
    "Computational time in seconds": 332.749792098999,
    "Stopping criterion in evaluations": 200000
}